Maximize
  D
Subject To
 R0: y1 + y2 + y3 + y4 + y5 = 2
 R1: - 49 y1 - 49 y2 - D >= -139
 R2: - 49 y1 - 49 y3 - D >= -133
 R3: - 49 y1 - 49 y4 - D >= -104
 R4: - 49 y1 - 49 y5 - D >= -128
 R5: - 49 y2 - 49 y3 - D >= -147
 R6: - 49 y2 - 49 y4 - D >= -115
 R7: - 49 y2 - 49 y5 - D >= -134
 R8: - 49 y3 - 49 y4 - D >= -125
 R9: - 49 y3 - 49 y5 - D >= -127
 R10: - 49 y4 - 49 y5 - D >= -136
Bounds
Binaries
 y1 y2 y3 y4 y5
End
